Ordonnancement/plne/source/petit_instance/4job/4job_6.dat
data;
param nombreJob := 4;
param nombreRessource := 3;
param duree := 1 9 2 3 3 5 4 6;
param capaciteRessource := 1 5 2 8 3 19;
param besoinRessource : 1 2 3 :=
                    1   1 8 2
                    2   2 7 8
                    3   2 2 10
                    4   3 6 8;
end;

